(set-info :source |printed by MathSAT|)
(declare-fun |!{$(in_main#0)<hi>}| () Int)
(declare-fun |!{$(in_main#0)<hi>}.next| () Int)
(declare-fun |!{$(in_main#0)<k>}| () Int)
(declare-fun |!{$(in_main#0)<k>}.next| () Int)
(declare-fun |!{$(in_main#0)<k#1>}| () Int)
(declare-fun |!{$(in_main#0)<k#1>}.next| () Int)
(declare-fun |!{$(in_main#0)<l>}| () Int)
(declare-fun |!{$(in_main#0)<l>}.next| () Int)
(declare-fun |!{$(in_main#0)<lo>}| () Int)
(declare-fun |!{$(in_main#0)<lo>}.next| () Int)
(declare-fun |!{$(in_main#0)<v>}| () Int)
(declare-fun |!{$(in_main#0)<v>}.next| () Int)
(declare-fun |!{$(in_main#0)<array.1>}| () (Array Int Int))
(declare-fun |!{$(in_main#0)<array.1>}.next| () (Array Int Int))
(declare-fun |!{$(in_main#0)<N>}| () Int)
(declare-fun |!{$(in_main#0)<N>}.next| () Int)
(declare-fun |!{$(in_main#0)<$(in___VERIFIER_nondet_int#0)<h#<__VERIFIER_nondet_int.return>>>}| () Int)
(declare-fun |!{$(in_main#0)<$(in___VERIFIER_nondet_int#2)<h#<__VERIFIER_nondet_int.return>>>}| () Int)
(declare-fun |!{$(in_main#0)<$(in___VERIFIER_nondet_int#3)<h#<__VERIFIER_nondet_int.return>>>}| () Int)
(declare-fun |!{$(in_main#0)<$(in___VERIFIER_nondet_int#5)<h#<__VERIFIER_nondet_int.return>>>}| () Int)
(declare-fun !pc () Int)
(declare-fun !pc.next () Int)
(declare-fun |%{$(in_main#0)<hi>}#1| () Int)
(declare-fun |%{$(in_main#0)<k#1>}#1| () Int)
(declare-fun |%{$(in_main#0)<l>}#1| () Int)
(declare-fun |%{$(in_main#0)<lo>}#1| () Int)
(declare-fun |%{$(in_main#0)<v>}#1| () Int)
(declare-fun |%{$(in_main#0)<array.1>}#1| () (Array Int Int))
(declare-fun |%{$(in_main#0)<hi>}#2| () Int)
(declare-fun |%{$(in_main#0)<lo>}#2| () Int)
(declare-fun |%{$(in_main#0)<idx>}#3| () Int)
(define-fun .def_49 () Int (! !pc :next !pc.next))
(define-fun .def_52 () Bool (! (= .def_49 2) :init true))
(define-fun .def_328 () Bool (= .def_49 45))
(define-fun .def_298 () Bool (= !pc.next 73))
(define-fun .def_331 () Bool (and .def_298 .def_328))
(define-fun .def_323 () Bool (= |!{$(in_main#0)<v>}.next| |!{$(in_main#0)<$(in___VERIFIER_nondet_int#3)<h#<__VERIFIER_nondet_int.return>>>}|))
(define-fun .def_319 () Bool (= |!{$(in_main#0)<k#1>}.next| 0))
(define-fun .def_10 () Int (! |!{$(in_main#0)<k>}| :next |!{$(in_main#0)<k>}.next|))
(define-fun .def_93 () Bool (= .def_10 |!{$(in_main#0)<k>}.next|))
(define-fun .def_8 () Int (! |!{$(in_main#0)<hi>}| :next |!{$(in_main#0)<hi>}.next|))
(define-fun .def_92 () Bool (= .def_8 |!{$(in_main#0)<hi>}.next|))
(define-fun .def_94 () Bool (and .def_92 .def_93))
(define-fun .def_320 () Bool (and .def_94 .def_319))
(define-fun .def_14 () Int (! |!{$(in_main#0)<l>}| :next |!{$(in_main#0)<l>}.next|))
(define-fun .def_97 () Bool (= .def_14 |!{$(in_main#0)<l>}.next|))
(define-fun .def_321 () Bool (and .def_97 .def_320))
(define-fun .def_16 () Int (! |!{$(in_main#0)<lo>}| :next |!{$(in_main#0)<lo>}.next|))
(define-fun .def_99 () Bool (= .def_16 |!{$(in_main#0)<lo>}.next|))
(define-fun .def_322 () Bool (and .def_99 .def_321))
(define-fun .def_324 () Bool (and .def_322 .def_323))
(define-fun .def_20 () (Array Int Int) (! |!{$(in_main#0)<array.1>}| :next |!{$(in_main#0)<array.1>}.next|))
(define-fun .def_103 () Bool (= .def_20 |!{$(in_main#0)<array.1>}.next|))
(define-fun .def_325 () Bool (and .def_103 .def_324))
(define-fun .def_22 () Int (! |!{$(in_main#0)<N>}| :next |!{$(in_main#0)<N>}.next|))
(define-fun .def_105 () Bool (= .def_22 |!{$(in_main#0)<N>}.next|))
(define-fun .def_326 () Bool (and .def_105 .def_325))
(define-fun .def_303 () Bool (<= .def_22 .def_10))
(define-fun .def_327 () Bool (and .def_303 .def_326))
(define-fun .def_332 () Bool (and .def_327 .def_331))
(define-fun .def_89 () Bool (= !pc.next 45))
(define-fun .def_329 () Bool (and .def_89 .def_328))
(define-fun .def_305 () (Array Int Int) (store .def_20 .def_10 |!{$(in_main#0)<$(in___VERIFIER_nondet_int#2)<h#<__VERIFIER_nondet_int.return>>>}|))
(define-fun .def_315 () Bool (= |!{$(in_main#0)<array.1>}.next| .def_305))
(define-fun .def_307 () Int (* (- 1) |!{$(in_main#0)<k>}.next|))
(define-fun .def_308 () Int (+ .def_10 .def_307))
(define-fun .def_309 () Bool (= .def_308 (- 1)))
(define-fun .def_310 () Bool (and .def_92 .def_309))
(define-fun .def_12 () Int (! |!{$(in_main#0)<k#1>}| :next |!{$(in_main#0)<k#1>}.next|))
(define-fun .def_95 () Bool (= .def_12 |!{$(in_main#0)<k#1>}.next|))
(define-fun .def_311 () Bool (and .def_95 .def_310))
(define-fun .def_312 () Bool (and .def_97 .def_311))
(define-fun .def_313 () Bool (and .def_99 .def_312))
(define-fun .def_18 () Int (! |!{$(in_main#0)<v>}| :next |!{$(in_main#0)<v>}.next|))
(define-fun .def_101 () Bool (= .def_18 |!{$(in_main#0)<v>}.next|))
(define-fun .def_314 () Bool (and .def_101 .def_313))
(define-fun .def_316 () Bool (and .def_314 .def_315))
(define-fun .def_317 () Bool (and .def_105 .def_316))
(define-fun .def_304 () Bool (not .def_303))
(define-fun .def_318 () Bool (and .def_304 .def_317))
(define-fun .def_330 () Bool (and .def_318 .def_329))
(define-fun .def_333 () Bool (or .def_330 .def_332))
(define-fun .def_295 () Bool (= .def_49 81))
(define-fun .def_299 () Bool (and .def_295 .def_298))
(define-fun .def_285 () Int (* (- 1) |!{$(in_main#0)<k#1>}.next|))
(define-fun .def_286 () Int (+ .def_12 .def_285))
(define-fun .def_287 () Bool (= .def_286 (- 1)))
(define-fun .def_288 () Bool (and .def_94 .def_287))
(define-fun .def_289 () Bool (and .def_97 .def_288))
(define-fun .def_290 () Bool (and .def_99 .def_289))
(define-fun .def_291 () Bool (and .def_101 .def_290))
(define-fun .def_292 () Bool (and .def_103 .def_291))
(define-fun .def_293 () Bool (and .def_105 .def_292))
(define-fun .def_266 () Bool (<= .def_22 .def_14))
(define-fun .def_294 () Bool (and .def_266 .def_293))
(define-fun .def_300 () Bool (and .def_294 .def_299))
(define-fun .def_259 () Bool (= !pc.next 81))
(define-fun .def_296 () Bool (and .def_259 .def_295))
(define-fun .def_236 () Int (* (- 1) |!{$(in_main#0)<l>}.next|))
(define-fun .def_276 () Int (+ .def_14 .def_236))
(define-fun .def_277 () Bool (= .def_276 (- 1)))
(define-fun .def_96 () Bool (and .def_94 .def_95))
(define-fun .def_278 () Bool (and .def_96 .def_277))
(define-fun .def_279 () Bool (and .def_99 .def_278))
(define-fun .def_280 () Bool (and .def_101 .def_279))
(define-fun .def_281 () Bool (and .def_103 .def_280))
(define-fun .def_282 () Bool (and .def_105 .def_281))
(define-fun .def_269 () Int (select .def_20 .def_14))
(define-fun .def_268 () Int (select .def_20 .def_12))
(define-fun .def_270 () Bool (<= .def_268 .def_269))
(define-fun .def_271 () Int (ite .def_270 1 0))
(define-fun .def_272 () Bool (= .def_271 0))
(define-fun .def_273 () Bool (not .def_272))
(define-fun .def_283 () Bool (and .def_273 .def_282))
(define-fun .def_267 () Bool (not .def_266))
(define-fun .def_284 () Bool (and .def_267 .def_283))
(define-fun .def_297 () Bool (and .def_284 .def_296))
(define-fun .def_301 () Bool (or .def_297 .def_300))
(define-fun .def_257 () Bool (= .def_49 73))
(define-fun .def_219 () Bool (= !pc.next 113))
(define-fun .def_262 () Bool (and .def_219 .def_257))
(define-fun .def_250 () Bool (= |!{$(in_main#0)<lo>}.next| 0))
(define-fun .def_231 () Int (* (- 1) .def_22))
(define-fun .def_245 () Int (+ |!{$(in_main#0)<hi>}.next| .def_231))
(define-fun .def_246 () Bool (= .def_245 (- 1)))
(define-fun .def_247 () Bool (and .def_93 .def_246))
(define-fun .def_248 () Bool (and .def_95 .def_247))
(define-fun .def_249 () Bool (and .def_97 .def_248))
(define-fun .def_251 () Bool (and .def_249 .def_250))
(define-fun .def_252 () Bool (and .def_101 .def_251))
(define-fun .def_253 () Bool (and .def_103 .def_252))
(define-fun .def_254 () Bool (and .def_105 .def_253))
(define-fun .def_232 () Int (+ .def_12 .def_231))
(define-fun .def_233 () Bool (<= (- 1) .def_232))
(define-fun .def_255 () Bool (and .def_233 .def_254))
(define-fun .def_263 () Bool (and .def_255 .def_262))
(define-fun .def_260 () Bool (and .def_257 .def_259))
(define-fun .def_237 () Int (+ .def_12 .def_236))
(define-fun .def_238 () Bool (= .def_237 (- 1)))
(define-fun .def_239 () Bool (and .def_96 .def_238))
(define-fun .def_240 () Bool (and .def_99 .def_239))
(define-fun .def_241 () Bool (and .def_101 .def_240))
(define-fun .def_242 () Bool (and .def_103 .def_241))
(define-fun .def_243 () Bool (and .def_105 .def_242))
(define-fun .def_234 () Bool (not .def_233))
(define-fun .def_244 () Bool (and .def_234 .def_243))
(define-fun .def_261 () Bool (and .def_244 .def_260))
(define-fun .def_264 () Bool (or .def_261 .def_263))
(define-fun .def_218 () Bool (= .def_49 113))
(define-fun .def_109 () Bool (= !pc.next 0))
(define-fun .def_226 () Bool (and .def_109 .def_218))
(define-fun .def_175 () Int (select .def_20 |%{$(in_main#0)<idx>}#3|))
(define-fun .def_176 () Bool (= .def_18 .def_175))
(define-fun .def_177 () Int (ite .def_176 1 0))
(define-fun .def_178 () Bool (= .def_177 0))
(define-fun .def_179 () Bool (not .def_178))
(define-fun .def_162 () Bool (= |%{$(in_main#0)<idx>}#3| (- 1)))
(define-fun .def_174 () Bool (not .def_162))
(define-fun .def_183 () Bool (and .def_174 .def_179))
(define-fun .def_188 () Bool (or .def_162 .def_183))
(define-fun .def_98 () Bool (and .def_96 .def_97))
(define-fun .def_100 () Bool (and .def_98 .def_99))
(define-fun .def_102 () Bool (and .def_100 .def_101))
(define-fun .def_104 () Bool (and .def_102 .def_103))
(define-fun .def_106 () Bool (and .def_104 .def_105))
(define-fun .def_214 () Bool (and .def_106 .def_188))
(define-fun .def_170 () Bool (= .def_16 |%{$(in_main#0)<idx>}#3|))
(define-fun .def_150 () Int (select .def_20 .def_16))
(define-fun .def_151 () Bool (= .def_18 .def_150))
(define-fun .def_171 () Bool (and .def_151 .def_170))
(define-fun .def_163 () Bool (= .def_8 |%{$(in_main#0)<idx>}#3|))
(define-fun .def_153 () Int (select .def_20 .def_8))
(define-fun .def_154 () Bool (= .def_18 .def_153))
(define-fun .def_165 () Bool (and .def_154 .def_163))
(define-fun .def_155 () Bool (not .def_154))
(define-fun .def_164 () Bool (and .def_155 .def_162))
(define-fun .def_166 () Bool (or .def_164 .def_165))
(define-fun .def_152 () Bool (not .def_151))
(define-fun .def_167 () Bool (and .def_152 .def_166))
(define-fun .def_172 () Bool (or .def_167 .def_171))
(define-fun .def_215 () Bool (and .def_172 .def_214))
(define-fun .def_112 () Int (* (- 1) .def_16))
(define-fun .def_113 () Int (+ .def_8 .def_112))
(define-fun .def_114 () Bool (<= .def_113 1))
(define-fun .def_216 () Bool (and .def_114 .def_215))
(define-fun .def_227 () Bool (and .def_216 .def_226))
(define-fun .def_222 () Bool (= !pc.next 198))
(define-fun .def_223 () Bool (and .def_218 .def_222))
(define-fun .def_203 () Bool (and .def_92 .def_178))
(define-fun .def_204 () Bool (and .def_93 .def_203))
(define-fun .def_205 () Bool (and .def_95 .def_204))
(define-fun .def_206 () Bool (and .def_97 .def_205))
(define-fun .def_207 () Bool (and .def_99 .def_206))
(define-fun .def_208 () Bool (and .def_101 .def_207))
(define-fun .def_209 () Bool (and .def_103 .def_208))
(define-fun .def_210 () Bool (and .def_105 .def_209))
(define-fun .def_211 () Bool (and .def_174 .def_210))
(define-fun .def_212 () Bool (and .def_172 .def_211))
(define-fun .def_213 () Bool (and .def_114 .def_212))
(define-fun .def_224 () Bool (and .def_213 .def_223))
(define-fun .def_220 () Bool (and .def_218 .def_219))
(define-fun .def_195 () Bool (= |!{$(in_main#0)<lo>}.next| |%{$(in_main#0)<lo>}#2|))
(define-fun .def_191 () Bool (= |!{$(in_main#0)<hi>}.next| |%{$(in_main#0)<hi>}#2|))
(define-fun .def_192 () Bool (and .def_93 .def_191))
(define-fun .def_193 () Bool (and .def_95 .def_192))
(define-fun .def_194 () Bool (and .def_97 .def_193))
(define-fun .def_196 () Bool (and .def_194 .def_195))
(define-fun .def_197 () Bool (and .def_101 .def_196))
(define-fun .def_198 () Bool (and .def_103 .def_197))
(define-fun .def_199 () Bool (and .def_105 .def_198))
(define-fun .def_144 () Bool (= .def_16 |%{$(in_main#0)<lo>}#2|))
(define-fun .def_134 () Bool (= |!{$(in_main#0)<$(in___VERIFIER_nondet_int#5)<h#<__VERIFIER_nondet_int.return>>>}| |%{$(in_main#0)<hi>}#2|))
(define-fun .def_123 () Int (select .def_20 |!{$(in_main#0)<$(in___VERIFIER_nondet_int#5)<h#<__VERIFIER_nondet_int.return>>>}|))
(define-fun .def_124 () Bool (<= .def_18 .def_123))
(define-fun .def_136 () Bool (and .def_124 .def_134))
(define-fun .def_146 () Bool (and .def_136 .def_144))
(define-fun .def_141 () Int (* (- 1) |%{$(in_main#0)<lo>}#2|))
(define-fun .def_142 () Int (+ |!{$(in_main#0)<$(in___VERIFIER_nondet_int#5)<h#<__VERIFIER_nondet_int.return>>>}| .def_141))
(define-fun .def_143 () Bool (= .def_142 (- 1)))
(define-fun .def_133 () Bool (= .def_8 |%{$(in_main#0)<hi>}#2|))
(define-fun .def_125 () Bool (not .def_124))
(define-fun .def_135 () Bool (and .def_125 .def_133))
(define-fun .def_145 () Bool (and .def_135 .def_143))
(define-fun .def_147 () Bool (or .def_145 .def_146))
(define-fun .def_200 () Bool (and .def_147 .def_199))
(define-fun .def_117 () Bool (<= |!{$(in_main#0)<$(in___VERIFIER_nondet_int#5)<h#<__VERIFIER_nondet_int.return>>>}| .def_8))
(define-fun .def_116 () Bool (<= .def_16 |!{$(in_main#0)<$(in___VERIFIER_nondet_int#5)<h#<__VERIFIER_nondet_int.return>>>}|))
(define-fun .def_118 () Bool (and .def_116 .def_117))
(define-fun .def_119 () Int (ite .def_118 1 0))
(define-fun .def_120 () Bool (= .def_119 0))
(define-fun .def_121 () Bool (not .def_120))
(define-fun .def_201 () Bool (and .def_121 .def_200))
(define-fun .def_115 () Bool (not .def_114))
(define-fun .def_202 () Bool (and .def_115 .def_201))
(define-fun .def_221 () Bool (and .def_202 .def_220))
(define-fun .def_225 () Bool (or .def_221 .def_224))
(define-fun .def_228 () Bool (or .def_225 .def_227))
(define-fun .def_90 () Bool (and .def_52 .def_89))
(define-fun .def_85 () Bool (= |!{$(in_main#0)<N>}.next| |!{$(in_main#0)<$(in___VERIFIER_nondet_int#0)<h#<__VERIFIER_nondet_int.return>>>}|))
(define-fun .def_83 () Bool (= |!{$(in_main#0)<array.1>}.next| |%{$(in_main#0)<array.1>}#1|))
(define-fun .def_81 () Bool (= |!{$(in_main#0)<v>}.next| |%{$(in_main#0)<v>}#1|))
(define-fun .def_79 () Bool (= |!{$(in_main#0)<lo>}.next| |%{$(in_main#0)<lo>}#1|))
(define-fun .def_77 () Bool (= |!{$(in_main#0)<l>}.next| |%{$(in_main#0)<l>}#1|))
(define-fun .def_75 () Bool (= |!{$(in_main#0)<k#1>}.next| |%{$(in_main#0)<k#1>}#1|))
(define-fun .def_73 () Bool (= |!{$(in_main#0)<k>}.next| 0))
(define-fun .def_72 () Bool (= |!{$(in_main#0)<hi>}.next| |%{$(in_main#0)<hi>}#1|))
(define-fun .def_74 () Bool (and .def_72 .def_73))
(define-fun .def_76 () Bool (and .def_74 .def_75))
(define-fun .def_78 () Bool (and .def_76 .def_77))
(define-fun .def_80 () Bool (and .def_78 .def_79))
(define-fun .def_82 () Bool (and .def_80 .def_81))
(define-fun .def_84 () Bool (and .def_82 .def_83))
(define-fun .def_86 () Bool (and .def_84 .def_85))
(define-fun .def_67 () Bool (<= |!{$(in_main#0)<$(in___VERIFIER_nondet_int#0)<h#<__VERIFIER_nondet_int.return>>>}| 0))
(define-fun .def_68 () Bool (not .def_67))
(define-fun .def_69 () Int (ite .def_68 1 0))
(define-fun .def_70 () Bool (= .def_69 0))
(define-fun .def_71 () Bool (not .def_70))
(define-fun .def_87 () Bool (and .def_71 .def_86))
(define-fun .def_91 () Bool (and .def_87 .def_90))
(define-fun .def_229 () Bool (or .def_91 .def_228))
(define-fun .def_265 () Bool (or .def_229 .def_264))
(define-fun .def_302 () Bool (or .def_265 .def_301))
(define-fun .def_334 () Bool (! (or .def_302 .def_333) :trans true))
(define-fun .def_108 () Bool (= .def_49 198))
(define-fun .def_335 () Bool (! (not .def_108) :invar-property 0 :invar-property-name ||))
(assert true)
